1588917
45,93,106,15,28,24,43,42,84,55,47,20,12,92,95,86,61,18,72,98,75,49,17,6,87,59,41,107,32,77,105,54,67,39,7,27,35,11,64,70,96,40,37,56,74,85,26,71,25,36,8,76,65,48,10,88,90,63,9,108,23,89,44,81,0,4,34,97,100,33,51,82,2,62,19,78,66,3,79,16,30,68,69,13,38,46,104,52,99,101,53,57,103,21,14,22,73,91,102,29,5,60,94,31,50,83,58,1,80,45